c Random generated cnf formula, satisfiable: false
p cnf 10 50
-4 -10 1 0
6 -7 2 0
7 5 -1 0
2 3 7 0
5 -7 2 0
8 -2 5 0
-6 3 2 0
7 -5 1 0
6 8 2 0
-10 5 -6 0
-2 6 -5 0
3 2 -6 0
5 6 -2 0
8 5 -10 0
4 -1 8 0
6 8 10 0
3 6 2 0
-5 -7 10 0
-8 7 -4 0
-1 10 3 0
-7 2 -8 0
-7 3 -2 0
-7 -10 -6 0
2 3 -10 0
5 8 -4 0
5 4 10 0
-1 -5 10 0
3 2 4 0
3 -4 6 0
-6 5 3 0
-3 4 -8 0
-4 -6 5 0
10 5 -4 0
2 3 4 0
3 1 5 0
2 7 -3 0
-1 -9 8 0
-8 -3 -4 0
3 -8 1 0
5 2 10 0
-4 9 -7 0
4 -2 -10 0
6 -7 1 0
-1 -5 -3 0
7 1 6 0
-5 3 -2 0
-1 -6 -5 0
-4 5 8 0
5 3 10 0
-7 -10 -8 0
